benchmark/results/graph__10-1000-0.10-02_5/graph__10-1000-0.10-02_5_Quinton_Benders_primal_sub.lp
\ This file has been generated by DOcplex
\ ENCODING=ISO-8859-1
\Problem name: Quinton Benders_primal_sub

Maximize
 obj: tau
Subject To
 c1: tau <= 0.000773993808
 c2: y_a0_proc_1 - tau = 0
 c3: y_a0_proc_1 <= 1
 c4: tau <= 0.002590673575
 c5: y_a1_proc_0 + y_a1_proc_1 - tau = 0
 c6: y_a1_proc_0 <= 1
 c7: y_a1_proc_1 <= 0
 c8: tau <= 0.001976284585
 c9: y_a2_proc_0 - tau = 0
 c10: y_a2_proc_0 <= 1
 c11: tau <= 0.001390820584
 c12: y_a3_proc_0 + y_a3_proc_1 - tau = 0
 c13: y_a3_proc_0 <= 1
 c14: y_a3_proc_1 <= 0
 c15: tau <= 0.000911577028
 c16: y_a4_proc_1 - tau = 0
 c17: y_a4_proc_1 <= 1
 c18: tau <= 0.001177856302
 c19: y_a5_proc_0 + y_a5_proc_1 - tau = 0
 c20: y_a5_proc_0 <= 1
 c21: y_a5_proc_1 <= 0
 c22: tau <= 0.001081081081
 c23: y_a6_proc_0 - tau = 0
 c24: y_a6_proc_0 <= 1
 c25: tau <= 0.001257861635
 c26: y_a7_proc_0 + y_a7_proc_1 - tau = 0
 c27: y_a7_proc_0 <= 0
 c28: y_a7_proc_1 <= 1
 c29: tau <= 0.001245330012
 c30: y_a8_proc_1 - tau = 0
 c31: y_a8_proc_1 <= 1
 c32: tau <= 0.001379310345
 c33: y_a9_proc_0 + y_a9_proc_1 - tau = 0
 c34: y_a9_proc_0 <= 0
 c35: y_a9_proc_1 <= 1
 c36: u_a1 - u_a0 - 1292 y_a0_proc_1 >= -1
 c37: u_a1 - u_a2 - 506 y_a2_proc_0 >= 0
 c38: u_a3 - u_a2 - 506 y_a2_proc_0 >= -1
 c39: u_a4 - u_a3 - 719 y_a3_proc_0 - 1178 y_a3_proc_1 >= 0
 c40: u_a0 - u_a5 - 849 y_a5_proc_0 - 1262 y_a5_proc_1 >= 0
 c41: u_a1 - u_a6 - 925 y_a6_proc_0 >= 0
 c42: u_a7 - u_a3 - 719 y_a3_proc_0 - 1178 y_a3_proc_1 >= 0
 c43: u_a8 - u_a7 - 1083 y_a7_proc_0 - 795 y_a7_proc_1 >= 0
 c44: u_a9 - u_a0 - 1292 y_a0_proc_1 >= -1
 c45: u_a0 - u_a3 - 719 y_a3_proc_0 - 1178 y_a3_proc_1 >= 0
 c46: u_a5 - u_a1 - 386 y_a1_proc_0 - 552 y_a1_proc_1 >= 0
 c47: u_a2 - u_a1 - 386 y_a1_proc_0 - 552 y_a1_proc_1 >= -1
 c48: u_a7 - u_a4 - 1097 y_a4_proc_1 >= 0
 c49: u_a6 - u_a8 - 803 y_a8_proc_1 >= 0
 c50: u_a5 - u_a6 - 925 y_a6_proc_0 >= 0
 c51: u_a2 - u_a8 - 803 y_a8_proc_1 >= 0
 c52: u_a3 - u_a9 - 910 y_a9_proc_0 - 725 y_a9_proc_1 >= 0
 c53: u_a1 - u_a0 - 1292 y_a0_proc_1 >= -2585
 c54: u_a0 - u_a1 - 552 y_a1_proc_1 >= 0
 c55: u_a3 - u_a0 - 1292 y_a0_proc_1 >= -2585
 c56: u_a0 - u_a3 - 1178 y_a3_proc_1 >= 0
 c57: u_a4 - u_a0 - 1292 y_a0_proc_1 >= -1
 c58: u_a0 - u_a4 - 1097 y_a4_proc_1 >= 0
 c59: u_a5 - u_a0 - 1292 y_a0_proc_1 >= -2584
 c60: u_a0 - u_a5 - 1262 y_a5_proc_1 >= -1
 c61: u_a7 - u_a0 - 1292 y_a0_proc_1 >= -1
 c62: u_a0 - u_a7 - 795 y_a7_proc_1 >= 0
 c63: u_a8 - u_a0 - 1292 y_a0_proc_1 >= -1
 c64: u_a0 - u_a8 - 803 y_a8_proc_1 >= 0
 c65: u_a9 - u_a0 - 1292 y_a0_proc_1 >= -1
 c66: u_a0 - u_a9 - 725 y_a9_proc_1 >= 0
 c67: u_a2 - u_a1 - 386 y_a1_proc_0 >= -1
 c68: u_a1 - u_a2 - 506 y_a2_proc_0 >= 0
 c69: u_a3 - u_a1 - 552 y_a1_proc_1 >= -2585
 c70: u_a3 - u_a1 - 386 y_a1_proc_0 >= -1
 c71: u_a1 - u_a3 - 1178 y_a3_proc_1 >= -2584
 c72: u_a1 - u_a3 - 719 y_a3_proc_0 >= 0
 c73: u_a4 - u_a1 - 552 y_a1_proc_1 >= -2585
 c74: u_a1 - u_a4 - 1097 y_a4_proc_1 >= 0
 c75: u_a5 - u_a1 - 552 y_a1_proc_1 >= -2584
 c76: u_a5 - u_a1 - 386 y_a1_proc_0 >= 0
 c77: u_a1 - u_a5 - 1262 y_a5_proc_1 >= -2585
 c78: u_a1 - u_a5 - 849 y_a5_proc_0 >= -1
 c79: u_a6 - u_a1 - 386 y_a1_proc_0 >= -1
 c80: u_a1 - u_a6 - 925 y_a6_proc_0 >= 0
 c81: u_a7 - u_a1 - 552 y_a1_proc_1 >= -2585
 c82: u_a7 - u_a1 - 386 y_a1_proc_0 >= -2585
 c83: u_a1 - u_a7 - 795 y_a7_proc_1 >= 0
 c84: u_a1 - u_a7 - 1083 y_a7_proc_0 >= 0
 c85: u_a8 - u_a1 - 552 y_a1_proc_1 >= -2585
 c86: u_a1 - u_a8 - 803 y_a8_proc_1 >= 0
 c87: u_a9 - u_a1 - 552 y_a1_proc_1 >= -2585
 c88: u_a9 - u_a1 - 386 y_a1_proc_0 >= -2585
 c89: u_a1 - u_a9 - 725 y_a9_proc_1 >= 0
 c90: u_a1 - u_a9 - 910 y_a9_proc_0 >= 0
 c91: u_a3 - u_a2 - 506 y_a2_proc_0 >= -1
 c92: u_a2 - u_a3 - 719 y_a3_proc_0 >= 0
 c93: u_a5 - u_a2 - 506 y_a2_proc_0 >= 0
 c94: u_a2 - u_a5 - 849 y_a5_proc_0 >= -1
 c95: u_a6 - u_a2 - 506 y_a2_proc_0 >= -1
 c96: u_a2 - u_a6 - 925 y_a6_proc_0 >= 0
 c97: u_a7 - u_a2 - 506 y_a2_proc_0 >= -2585
 c98: u_a2 - u_a7 - 1083 y_a7_proc_0 >= 0
 c99: u_a9 - u_a2 - 506 y_a2_proc_0 >= -2585
 c100: u_a2 - u_a9 - 910 y_a9_proc_0 >= 0
 c101: u_a4 - u_a3 - 1178 y_a3_proc_1 >= -2584
 c102: u_a3 - u_a4 - 1097 y_a4_proc_1 >= -1
 c103: u_a5 - u_a3 - 1178 y_a3_proc_1 >= -2584
 c104: u_a5 - u_a3 - 719 y_a3_proc_0 >= 0
 c105: u_a3 - u_a5 - 1262 y_a5_proc_1 >= -2585
 c106: u_a3 - u_a5 - 849 y_a5_proc_0 >= -1
 c107: u_a6 - u_a3 - 719 y_a3_proc_0 >= 0
 c108: u_a3 - u_a6 - 925 y_a6_proc_0 >= -1
 c109: u_a7 - u_a3 - 1178 y_a3_proc_1 >= -2584
 c110: u_a7 - u_a3 - 719 y_a3_proc_0 >= -2584
 c111: u_a3 - u_a7 - 795 y_a7_proc_1 >= -1
 c112: u_a3 - u_a7 - 1083 y_a7_proc_0 >= -1
 c113: u_a8 - u_a3 - 1178 y_a3_proc_1 >= -2584
 c114: u_a3 - u_a8 - 803 y_a8_proc_1 >= -1
 c115: u_a9 - u_a3 - 1178 y_a3_proc_1 >= -2584
 c116: u_a9 - u_a3 - 719 y_a3_proc_0 >= -2584
 c117: u_a3 - u_a9 - 725 y_a9_proc_1 >= -1
 c118: u_a3 - u_a9 - 910 y_a9_proc_0 >= -1
 c119: u_a5 - u_a4 - 1097 y_a4_proc_1 >= -2584
 c120: u_a4 - u_a5 - 1262 y_a5_proc_1 >= -1
 c121: u_a7 - u_a4 - 1097 y_a4_proc_1 >= 0
 c122: u_a4 - u_a7 - 795 y_a7_proc_1 >= -1
 c123: u_a8 - u_a4 - 1097 y_a4_proc_1 >= 0
 c124: u_a4 - u_a8 - 803 y_a8_proc_1 >= -1
 c125: u_a9 - u_a4 - 1097 y_a4_proc_1 >= -1
 c126: u_a4 - u_a9 - 725 y_a9_proc_1 >= 0
 c127: u_a6 - u_a5 - 849 y_a5_proc_0 >= -1
 c128: u_a5 - u_a6 - 925 y_a6_proc_0 >= 0
 c129: u_a7 - u_a5 - 1262 y_a5_proc_1 >= -2585
 c130: u_a7 - u_a5 - 849 y_a5_proc_0 >= -2585
 c131: u_a5 - u_a7 - 795 y_a7_proc_1 >= 0
 c132: u_a5 - u_a7 - 1083 y_a7_proc_0 >= 0
 c133: u_a8 - u_a5 - 1262 y_a5_proc_1 >= -2585
 c134: u_a5 - u_a8 - 803 y_a8_proc_1 >= 0
 c135: u_a9 - u_a5 - 1262 y_a5_proc_1 >= -2585
 c136: u_a9 - u_a5 - 849 y_a5_proc_0 >= -2585
 c137: u_a5 - u_a9 - 725 y_a9_proc_1 >= 0
 c138: u_a5 - u_a9 - 910 y_a9_proc_0 >= 0
 c139: u_a7 - u_a6 - 925 y_a6_proc_0 >= -2585
 c140: u_a6 - u_a7 - 1083 y_a7_proc_0 >= 0
 c141: u_a9 - u_a6 - 925 y_a6_proc_0 >= -2585
 c142: u_a6 - u_a9 - 910 y_a9_proc_0 >= 0
 c143: u_a8 - u_a7 - 795 y_a7_proc_1 >= 0
 c144: u_a7 - u_a8 - 803 y_a8_proc_1 >= -1
 c145: u_a9 - u_a7 - 795 y_a7_proc_1 >= -1
 c146: u_a9 - u_a7 - 1083 y_a7_proc_0 >= -2585
 c147: u_a7 - u_a9 - 725 y_a9_proc_1 >= 0
 c148: u_a7 - u_a9 - 910 y_a9_proc_0 >= -2584
 c149: u_a9 - u_a8 - 803 y_a8_proc_1 >= -1
 c150: u_a8 - u_a9 - 725 y_a9_proc_1 >= 0

Bounds
End
