benchmark/results/graph__10-1000-0.10-02_5/graph__10-1000-0.10-02_5_Quinton_Benders_primal_sub.txt
solution for: Quinton Benders_primal_sub
objective: 0.000123503
status: OPTIMAL_SOLUTION(2)
u_a0=0.840
u_a1=0.688
u_a2=0.625
u_a3=0.090
u_a4=0.178
u_a5=0.736
u_a6=0.511
u_a7=0.314
u_a8=0.412
tau=0.000
y_a0_proc_1=0.000
y_a1_proc_0=0.000
y_a2_proc_0=0.000
y_a3_proc_0=0.000
y_a4_proc_1=0.000
y_a5_proc_0=0.000
y_a6_proc_0=0.000
y_a7_proc_1=0.000
y_a8_proc_1=0.000
y_a9_proc_1=0.000
